+ srun -p Mix -N 1 --ntasks-per-node=1 --mem 256G -K -w nico4 python search_algo/main.py
r_cc_time:
[[[3. 3. 2. 1.]
  [3. 3. 2. 1.]]

 [[9. 7. 4. 1.]
  [3. 5. 4. 3.]]]
tot_comm_units:
[[12. 12.]
 [24. 24.]]
ub_comm_units (before):
[3. 9.]
ub_comm_units (after):
[3. 9.]
r_cc_time:
[[[0. 2. 4. 6.]
  [2. 2. 2. 0.]]

 [[2. 4. 6. 6.]
  [2. 4. 6. 6.]]]
tot_comm_units:
[[12. 12.]
 [24. 24.]]
ub_comm_units (before):
[6. 6.]
ub_comm_units (after):
[6. 6.]
r_cc_time:
[[[12. 10.  8.  6.]
  [ 2.  4.  4.  4.]]

 [[14. 14. 12. 10.]
  [14. 14. 12. 10.]]]
tot_comm_units:
[[36. 36.]
 [72. 72.]]
ub_comm_units (before):
[12. 18.]
ub_comm_units (after):
[12. 18.]
ub_cc_units: [[ 4.       12.      ]
 [ 4.       34.549236]]
[INFO]: fwd schedules
schedule:
[[[[ 0 -1 -1 -1 -1 -1 -1 -1]
   [ 1  1 -1 -1 -1 -1 -1 -1]
   [ 2  2  2 -1 -1 -1 -1 -1]
   [ 3  3  3  3 -1 -1 -1 -1]
   [ 3  3  3  3  3 -1 -1 -1]
   [ 2  2  2  2  2  2 -1 -1]
   [ 1  1  1  1  1  1  1 -1]
   [ 0  0  0  0  0  0  0  0]]]]
fob: 0, get_e2e_time(): [0.0004682 0.001161 ], get_absolute_cc_time:
[[0.000387  0.0004682]
 [0.001161  0.0007023]]
schedule:
[[[[ 0 -1 -1 -1]
   [ 0  1 -1 -1]
   [ 0  1  2 -1]
   [ 0  1  2  3]]]]
fob: 0, get_e2e_time(): [0.00046  0.001348], get_absolute_cc_time:
[[0.00046    0.00011705]
 [0.001348   0.00035115]]
schedule:
[[[[ 0 -1 -1 -1]
   [ 1  1 -1 -1]
   [ 2  2  2 -1]
   [ 3  3  3  3]]]]
fob: 0, get_e2e_time(): [0.00046  0.001348], get_absolute_cc_time:
[[0.00046   0.0002341]
 [0.001348  0.0002341]]
schedule:
[[[[ 0 -1 -1 -1]
   [ 1  1 -1 -1]
   [ 2  2  2 -1]
   [ 3  3  3  3]]]]
fob: 0, get_e2e_time(): [0.00046  0.001348], get_absolute_cc_time:
[[0.00046   0.0002341]
 [0.001348  0.0002341]]
Welcome to the CBC MILP Solver 
Version: 2.10.3 
Build Date: Dec 15 2019 

command line - /home/yhy/.local/anaconda3/envs/mg/lib/python3.8/site-packages/pulp/solverdir/cbc/linux/64/cbc ./search_algo/tmp/bfd9b0b794224da1ae1bcb7e51d84769-pulp.mps timeMode elapsed branch printingOptions all solution ./search_algo/tmp/bfd9b0b794224da1ae1bcb7e51d84769-pulp.sol (default strategy 1)
At line 2 NAME          MODEL
At line 3 ROWS
At line 63 COLUMNS
At line 253 RHS
At line 312 BOUNDS
At line 331 ENDATA
Problem MODEL has 58 rows, 35 columns and 152 elements
Coin0008I MODEL read with 0 errors
Option for timeMode changed from cpu to elapsed
Continuous objective value is 0.000245182 - 0.00 seconds
Cgl0004I processed model has 57 rows, 34 columns (18 integer (18 of which binary)) and 150 elements
Cbc0038I Initial state - 18 integers unsatisfied sum - 0.00646206
Cbc0038I Pass   1: suminf.    0.00000 (0) obj. 0.00088091 iterations 20
Cbc0038I Solution found of 0.00088091
Cbc0038I Relaxing continuous gives 0.00088091
Cbc0038I Before mini branch and bound, 0 integers at bound fixed and 1 continuous
Cbc0038I Full problem 57 rows 34 columns, reduced to 51 rows 31 columns
Cbc0038I Mini branch and bound improved solution from 0.00088091 to 0.000505546 (0.02 seconds)
Cbc0038I Round again with cutoff of 0.00047051
Cbc0038I Pass   2: suminf.    0.00152 (10) obj. 0.00047051 iterations 12
Cbc0038I Pass   3: suminf.    0.00152 (10) obj. 0.00047051 iterations 0
Cbc0038I Pass   4: suminf.    0.00194 (9) obj. 0.00047051 iterations 14
Cbc0038I Pass   5: suminf.    0.00194 (9) obj. 0.00047051 iterations 0
Cbc0038I Pass   6: suminf.    0.00194 (9) obj. 0.00047051 iterations 0
Cbc0038I Pass   7: suminf.    0.00222 (8) obj. 0.00047051 iterations 13
Cbc0038I Pass   8: suminf.    0.00222 (8) obj. 0.00047051 iterations 0
Cbc0038I Pass   9: suminf.    0.00222 (8) obj. 0.00047051 iterations 0
Cbc0038I Pass  10: suminf.    0.00201 (8) obj. 0.00047051 iterations 3
Cbc0038I Pass  11: suminf.    0.00201 (8) obj. 0.00047051 iterations 0
Cbc0038I Pass  12: suminf.    0.00201 (8) obj. 0.00047051 iterations 0
Cbc0038I Pass  13: suminf.    0.00247 (8) obj. 0.00047051 iterations 9
Cbc0038I Pass  14: suminf.    0.00247 (8) obj. 0.00047051 iterations 0
Cbc0038I Pass  15: suminf.    0.00247 (8) obj. 0.00047051 iterations 0
Cbc0038I Pass  16: suminf.    0.00137 (6) obj. 0.00047051 iterations 17
Cbc0038I Pass  17: suminf.    0.00137 (6) obj. 0.00047051 iterations 0
Cbc0038I Pass  18: suminf.    0.00137 (6) obj. 0.00047051 iterations 0
Cbc0038I Pass  19: suminf.    0.00190 (7) obj. 0.00047051 iterations 7
Cbc0038I Pass  20: suminf.    0.00190 (7) obj. 0.00047051 iterations 0
Cbc0038I Pass  21: suminf.    0.00190 (7) obj. 0.00047051 iterations 0
Cbc0038I Pass  22: suminf.    0.00194 (9) obj. 0.00047051 iterations 9
Cbc0038I Pass  23: suminf.    0.00194 (9) obj. 0.00047051 iterations 0
Cbc0038I Pass  24: suminf.    0.00194 (9) obj. 0.00047051 iterations 0
Cbc0038I Pass  25: suminf.    0.00229 (10) obj. 0.00047051 iterations 10
Cbc0038I Pass  26: suminf.    0.00229 (10) obj. 0.00047051 iterations 0
Cbc0038I Pass  27: suminf.    0.00229 (10) obj. 0.00047051 iterations 0
Cbc0038I Pass  28: suminf.    0.00181 (12) obj. 0.00047051 iterations 11
Cbc0038I Pass  29: suminf.    0.00181 (12) obj. 0.00047051 iterations 0
Cbc0038I Pass  30: suminf.    0.00181 (12) obj. 0.00047051 iterations 0
Cbc0038I Pass  31: suminf.    0.00176 (10) obj. 0.00047051 iterations 9
Cbc0038I No solution found this major pass
Cbc0038I Before mini branch and bound, 0 integers at bound fixed and 0 continuous
Cbc0038I Full problem 57 rows 34 columns, reduced to 57 rows 34 columns
Cbc0038I Mini branch and bound did not improve solution (0.04 seconds)
Cbc0038I After 0.04 seconds - Feasibility pump exiting with objective of 0.000505546 - took 0.02 seconds
Cbc0012I Integer solution of 0.00050554625 found by feasibility pump after 0 iterations and 0 nodes (0.04 seconds)
Cbc0006I The LP relaxation is infeasible or too expensive
Cbc0031I 10 added rows had average density of 3.2
Cbc0013I At root node, 10 cuts changed objective from 0.00024518208 to 0.00037527465 in 23 passes
Cbc0014I Cut generator 0 (Probing) - 130 row cuts average 2.8 elements, 8 column cuts (8 active)  in 0.002 seconds - new frequency is 1
Cbc0014I Cut generator 1 (Gomory) - 41 row cuts average 6.6 elements, 0 column cuts (0 active)  in 0.001 seconds - new frequency is 1
Cbc0014I Cut generator 2 (Knapsack) - 0 row cuts average 0.0 elements, 0 column cuts (0 active)  in 0.000 seconds - new frequency is -100
Cbc0014I Cut generator 3 (Clique) - 0 row cuts average 0.0 elements, 0 column cuts (0 active)  in 0.000 seconds - new frequency is -100
Cbc0014I Cut generator 4 (MixedIntegerRounding2) - 32 row cuts average 2.2 elements, 0 column cuts (0 active)  in 0.001 seconds - new frequency is 1
Cbc0014I Cut generator 5 (FlowCover) - 0 row cuts average 0.0 elements, 0 column cuts (0 active)  in 0.001 seconds - new frequency is -100
Cbc0001I Search completed - best objective 0.0005055462502284988, took 247 iterations and 0 nodes (0.04 seconds)
Cbc0035I Maximum depth 0, 0 variables fixed on reduced cost
Cuts at root node changed objective from 0.000245182 to 0.000375275
Probing was tried 23 times and created 138 cuts of which 0 were active after adding rounds of cuts (0.002 seconds)
Gomory was tried 22 times and created 41 cuts of which 0 were active after adding rounds of cuts (0.001 seconds)
Knapsack was tried 22 times and created 0 cuts of which 0 were active after adding rounds of cuts (0.000 seconds)
Clique was tried 22 times and created 0 cuts of which 0 were active after adding rounds of cuts (0.000 seconds)
MixedIntegerRounding2 was tried 22 times and created 32 cuts of which 0 were active after adding rounds of cuts (0.001 seconds)
FlowCover was tried 22 times and created 0 cuts of which 0 were active after adding rounds of cuts (0.001 seconds)
TwoMirCuts was tried 1 times and created 0 cuts of which 0 were active after adding rounds of cuts (0.000 seconds)
ZeroHalf was tried 1 times and created 0 cuts of which 0 were active after adding rounds of cuts (0.000 seconds)

Result - Optimal solution found

Objective value:                0.00050555
Enumerated nodes:               0
Total iterations:               247
Time (CPU seconds):             0.04
Time (Wallclock seconds):       0.05

Option for printingOptions changed from normal to all
Total time (CPU seconds):       0.04   (Wallclock seconds):       0.07

TOT_TIME_UP: 0.4600000102072954
(0, 0, 0, 0, 0): 0.000e+00, 1.150e-04, 1.150e-04
(0, 0, 1, 0, 1): 1.302e-04, 1.150e-04, 2.452e-04
(0, 0, 1, 1, 1): 2.452e-04, 1.150e-04, 3.602e-04
(0, 0, 2, 0, 2): 3.905e-04, 1.150e-04, 5.055e-04
(0, 0, 2, 1, 2): 1.302e-04, 1.150e-04, 2.452e-04
(0, 0, 2, 2, 2): 2.452e-04, 1.150e-04, 3.602e-04
(0, 0, 3, 0, 3): 2.755e-04, 1.150e-04, 3.905e-04
(0, 0, 3, 1, 3): 3.905e-04, 1.150e-04, 5.055e-04
(0, 0, 3, 2, 3): 1.605e-04, 1.150e-04, 2.755e-04
(0, 0, 3, 3, 3): 0.000e+00, 1.150e-04, 1.150e-04
(0, 0, 1, 0, 1, 'i', 'c'): 0.000e+00, 1.302e-04, 1.302e-04
(0, 0, 2, 0, 2, 'i', 'c'): 2.604e-04, 1.302e-04, 3.905e-04
(0, 0, 3, 0, 3, 'i', 'c'): 1.302e-04, 1.302e-04, 2.604e-04
(0, 0, 2, 1, 2, 'i', 'c'): 0.000e+00, 1.302e-04, 1.302e-04
(0, 0, 3, 1, 3, 'i', 'c'): 2.604e-04, 1.302e-04, 3.905e-04
(0, 0, 3, 2, 3, 'i', 'c'): 0.000e+00, 1.302e-04, 1.302e-04
Streams:
gpu0, comp: 1
(0, 0, 0, 0, 0): 0.000e+00, 1.150e-04, 1.150e-04
gpu0, send: 3
(0, 0, 1, 0, 1, 'i', 'c'): 0.000e+00, 1.302e-04, 1.302e-04
(0, 0, 2, 0, 2, 'i', 'c'): 2.604e-04, 1.302e-04, 3.905e-04
(0, 0, 3, 0, 3, 'i', 'c'): 1.302e-04, 1.302e-04, 2.604e-04
gpu0, recv: 0
gpu1, comp: 2
(0, 0, 1, 0, 1): 1.302e-04, 1.150e-04, 2.452e-04
(0, 0, 1, 1, 1): 2.452e-04, 1.150e-04, 3.602e-04
gpu1, send: 2
(0, 0, 2, 1, 2, 'i', 'c'): 0.000e+00, 1.302e-04, 1.302e-04
(0, 0, 3, 1, 3, 'i', 'c'): 2.604e-04, 1.302e-04, 3.905e-04
gpu1, recv: 1
(0, 0, 1, 0, 1, 'i', 'c'): 0.000e+00, 1.302e-04, 1.302e-04
gpu2, comp: 3
(0, 0, 2, 0, 2): 3.905e-04, 1.150e-04, 5.055e-04
(0, 0, 2, 1, 2): 1.302e-04, 1.150e-04, 2.452e-04
(0, 0, 2, 2, 2): 2.452e-04, 1.150e-04, 3.602e-04
gpu2, send: 1
(0, 0, 3, 2, 3, 'i', 'c'): 0.000e+00, 1.302e-04, 1.302e-04
gpu2, recv: 2
(0, 0, 2, 0, 2, 'i', 'c'): 2.604e-04, 1.302e-04, 3.905e-04
(0, 0, 2, 1, 2, 'i', 'c'): 0.000e+00, 1.302e-04, 1.302e-04
gpu3, comp: 4
(0, 0, 3, 0, 3): 2.755e-04, 1.150e-04, 3.905e-04
(0, 0, 3, 1, 3): 3.905e-04, 1.150e-04, 5.055e-04
(0, 0, 3, 2, 3): 1.605e-04, 1.150e-04, 2.755e-04
(0, 0, 3, 3, 3): 0.000e+00, 1.150e-04, 1.150e-04
gpu3, send: 0
gpu3, recv: 3
(0, 0, 3, 0, 3, 'i', 'c'): 1.302e-04, 1.302e-04, 2.604e-04
(0, 0, 3, 1, 3, 'i', 'c'): 2.604e-04, 1.302e-04, 3.905e-04
(0, 0, 3, 2, 3, 'i', 'c'): 0.000e+00, 1.302e-04, 1.302e-04
objective=5.055e-04
+ set +x
